c --- [ banner ] -------------------------------------------------------------
c 
c CaDiCaL Radically Simplified CDCL SAT Solver
c Copyright (c) 2016-2021 A. Biere, M. Fleury, N. Froleyks
c 
c Version 1.5.2 ca9bff05c11bde5eae4912f9932871d1527e61d8
c g++ (GCC) 9.3.0 -Wall -Wextra -O3 -DNDEBUG
c Sun May 1 02:23:23 EDT 2022 Linux gra-login1 3.10.0-1160.59.1.el7.x86_64 x86_64
c 
c --- [ limit ] --------------------------------------------------------------
c 
c setting conflict limit to 200000 conflicts (due to '200000')
c 
c --- [ parsing input ] ------------------------------------------------------
c 
c reading DIMACS file from '26.cubes689.adj'
c opening file to read '26.cubes689.adj'
c found 'p cnf 5320 924210' header
c parsed 924210 clauses in 8.18 seconds process time
c closing file '26.cubes689.adj'
c after reading 686668116 bytes 654.9 MB
c 
c --- [ options ] ------------------------------------------------------------
c 
c all options are set to their default value
c 
c --- [ solving ] ------------------------------------------------------------
c 
c time measured in process time since initialization
c 
c  seconds   reductions  redundant  irredundant
c          MB    restarts       trail      variables
c           level   conflicts       glue        remaining
c 
c *  8.19 691  0 0   0    0    0  0% 0 923580 4095 77%
c {  8.91 728  0 0   0    0    0  0% 0 923580 4095 77%
c i  8.96 728 22 0   0    5    4 34% 2 923580 4094 77%
c i  9.91 750 28 0   5  165   68 34% 5 923580 4034 76%
c i 10.74 755 29 0  13  256  103 36% 8 923580 4033 76%
c - 13.15 734 29 1  24  301   83 36% 8 177804 4033 76%
c i 13.38 712 33 1  47  406  123 37% 9 177804 4032 76%
c i 13.67 712 44 1  68  496  173 38% 14 177804 4023 76%
c i 13.85 712 51 1  77  528  200 38% 16 177804 3985 75%
c i 13.86 712 51 1  78  531  202 38% 16 177804 3984 75%
c i 13.86 712 51 1  78  533  203 38% 16 177804 3983 75%
c i 13.98 712 50 1  87  575  221 39% 15 177804 3982 75%
c i 13.99 712 50 1  87  578  223 39% 15 177804 3981 75%
c i 14.00 712 49 1  87  583  227 39% 15 177804 3980 75%
c i 14.10 712 50 1  88  615  252 39% 15 177804 3975 75%
c i 14.19 712 54 1  91  631  266 39% 16 177804 3974 75%
c i 14.20 712 54 1  91  633  267 39% 16 177804 3973 75%
c i 14.20 712 55 1  92  637  269 39% 16 177804 3971 75%
c i 14.36 712 45 1 104  832  315 39% 14 177804 3953 74%
c i 14.64 712 46 1 109  894  352 39% 15 177804 3943 74%
c 
c  seconds   reductions  redundant   irredundant
c          MB    restarts       trail       variables
c           level   conflicts       glue         remaining
c 
c i 14.92 712 47 1 121  942  393 39% 16 177804 3940 74%
c } 15.33 712 50 1 134 1002  440 40% 17 177804 3940 74%
c [ 15.33 712  0 1 134 1002  440  0% 0 177804 3940 74%
c O 15.33 712  2 1 134 1003  441 26% 1 177804 3940 74%
c - 15.82 773 12 2 134 1051  421 49% 10 155578 3940 74%
c i 15.93 773 13 2 134 1164  490 54% 11 155578 3939 74%
c i 15.93 773 13 2 134 1169  491 54% 11 155578 3938 74%
c i 15.93 773 13 2 134 1170  491 54% 11 155578 3937 74%
c i 15.94 773 13 2 134 1179  492 54% 11 155578 3936 74%
c i 15.94 773 13 2 134 1180  492 54% 11 155578 3935 74%
c i 15.94 773 13 2 134 1186  491 54% 11 155578 3934 74%
c i 15.94 773 12 2 134 1188  492 54% 10 155578 3933 74%
c i 15.94 773 12 2 134 1189  492 54% 10 155578 3932 74%
c i 15.95 773 12 2 134 1199  497 54% 10 155578 3931 74%
c i 15.95 773 13 2 134 1213  505 53% 10 155578 3930 74%
c i 15.96 773 14 2 134 1231  521 53% 11 155578 3929 74%
c i 15.96 773 15 2 134 1236  523 53% 11 155578 3928 74%
c i 15.96 773 15 2 134 1237  523 53% 11 155578 3927 74%
c i 16.00 773 18 2 134 1383  635 54% 15 155578 3926 74%
c i 16.05 773 18 2 134 1573  750 54% 14 155578 3925 74%
c 
c  seconds   reductions  redundant   irredundant
c          MB    restarts       trail       variables
c           level   conflicts       glue         remaining
c 
c i 16.16 773 19 2 134 1880  901 55% 15 155578 3924 74%
c i 16.16 773 19 2 134 1905  914 55% 15 155578 3923 74%
c - 16.34 772 18 3 135 2123  935 55% 15 155529 3923 74%
c ] 16.70 754 19 3 135 3003 1412 41% 16 155529 3923 74%
c { 16.70 754 50 3 135 3003 1412 54% 17 155529 3923 74%
c F 16.70 754 50 3 136 3004 1413 54% 17 155529 3923 74%
c i 17.04 754 53 3 174 3164 1536 50% 19 155529 3922 74%
c i 17.23 754 54 3 198 3290 1612 48% 20 155529 3921 74%
c - 17.52 754 50 4 215 3557 1364 46% 19 155524 3921 74%
c i 17.59 754 47 4 222 3699 1423 44% 19 155524 3920 74%
c i 17.64 754 48 4 230 3748 1458 44% 19 155524 3919 74%
c i 17.76 754 49 4 244 3803 1505 44% 19 155524 3918 74%
c d 19.88 754 50 4 372 5000 2405 39% 21 155507 3914 74%
c 2 19.92 754 50 4 372 5000 4069 39% 21 155421 3911 74%
c p 20.64 754 50 4 372 5000 9422 39% 21 155421 3851 72%
c d 20.86 754 50 4 372 5000 9236 39% 21 154991 3848 72%
c - 21.67 751 50 5 443 5344 1996 39% 22 154991 3848 72%
c # 22.10 751 47 5 484 6006 2325 37% 22 154991 3848 72%
c } 23.04 751 46 5 563 7005 3118 37% 22 154991 3848 72%
c [ 23.04 751 19 5 563 7005 3118 41% 16 154991 3848 72%
c 
c  seconds   reductions  redundant   irredundant
c          MB    restarts       trail       variables
c           level   conflicts       glue         remaining
c 
c - 23.25 695 20 6 564 7486 2546 40% 16 154991 3848 72%
c - 24.19 695 22 7 565 9988 3178 40% 18 154991 3848 72%
c I 24.26 695 22 7 565 10009 3194 40% 18 154991 3848 72%
c - 26.20 695 27 8 567 12846 3461 39% 22 154991 3848 72%
c 2 27.42 695 28 8 568 15001 6634 38% 23 154981 3848 72%
c p 28.58 695 28 8 568 15001 11998 38% 23 154981 3848 72%
c ] 28.66 695 28 8 568 15005 12001 38% 23 154981 3848 72%
c { 28.66 695 46 8 568 15005 12001 37% 22 154981 3848 72%
c B 28.75 695 46 8 568 15012 12006 37% 22 154981 3848 72%
c s 29.42 695 44 8 583 15636 12171 37% 22 152555 3848 72%
c v 31.36 695 44 8 583 15636 12171 37% 22 152516 3848 72%
c t 31.47 695 44 8 583 15636 12148 37% 22 152426 3848 72%
c e 31.82 696 44 8 583 15636 6893 37% 22 147500 1256 24%
c s 31.90 696 44 8 583 15636 6893 37% 22 147153 1256 24%
c - 32.68 696 41 9 583 16063 4034 59% 21 147153 1256 24%
c - 34.04 696 32 10 626 19566 4097 59% 18 147153 1256 24%
c W 34.68 696 30 10 649 21016 5032 59% 18 147153 1256 24%
c - 35.20 696 27 11 665 23424 4492 60% 17 147153 1256 24%
c - 38.90 696 27 12 934 27632 5083 59% 17 147153 1256 24%
c F 40.18 696 27 12 1005 28019 5402 59% 17 147153 1256 24%
c 
c  seconds   reductions     redundant   irredundant
c          MB     restarts         trail       variables
c           level      conflicts       glue         remaining
c 
c 2 41.07 696 26 12 1040 30003 7120 58% 17 147152 1256 24%
c p 41.80 696 26 12 1040 30003 8898 58% 17 147152 1255 24%
c d 41.92 696 26 12 1040 30003 8875 58% 17 146951 1254 24%
c } 45.19 695 28 12 1251 31005 9715 58% 18 146951 1254 24%
c [ 45.19 696 28 12 1251 31005 9715 119% 23 146951 1254 24%
c - 45.96 696 32 13 1251 32188 6231 112% 26 146951 1254 24%
c B 47.33 696 42 13 1254 36021 9277 97% 33 146951 1254 24%
c - 47.86 696 42 14 1254 37095 7161 94% 33 146951 1254 24%
c - 49.56 696 41 15 1258 42349 7357 85% 32 146951 1254 24%
c s 49.85 696 40 15 1258 43126 7902 84% 32 146586 1254 24%
c v 51.72 695 40 15 1258 43126 7902 84% 32 146559 1254 24%
c t 51.78 695 40 15 1258 43126 7896 84% 32 146556 1254 24%
c e 52.25 696 40 15 1258 43126 7884 84% 32 146554 1247 23%
c s 52.38 696 40 15 1258 43126 7884 84% 32 146259 1247 23%
c W 53.64 696 39 15 1258 45025 9049 82% 31 146259 1247 23%
c - 54.21 696 38 16 1259 47953 6982 79% 30 146259 1247 23%
c 2 54.56 696 37 16 1259 50005 8934 77% 30 146259 1247 23%
c p 55.17 696 37 16 1259 50005 10982 77% 30 146259 1247 23%
c - 56.17 696 34 17 1259 53897 7508 75% 28 146259 1247 23%
c O 56.52 696 34 17 1260 55027 8149 74% 28 146259 1247 23%
c 
c  seconds   reductions     redundant   irredundant
c          MB     restarts         trail       variables
c           level      conflicts       glue         remaining
c 
c ] 56.57 696 34 17 1260 55164 8211 74% 28 146259 1247 23%
c 1 56.57 696 34 17 1260 55164 8211 74% 28 146259 1247 23%
c 
c --- [ writing output ] -----------------------------------------------------
c 
c writing simplified CNF to DIMACS file 'simp/26.cubes689.adj.simp1'
c * 56.57 696 34 17 1260 55164 8211 74% 28 146259 1247 23%
c opening file to write 'simp/26.cubes689.adj.simp1'
c writing 'p cnf 5320 146259' header
c closing file 'simp/26.cubes689.adj.simp1'
c after writing 61894416 bytes 59.0 MB
c wrote 146259 clauses in 0.39 seconds process time
c 
c --- [ writing extension ] --------------------------------------------------
c 
c writing extension stack to 'simp/26.cubes689.adj.ext1'
c opening file to write 'simp/26.cubes689.adj.ext1'
c closing file 'simp/26.cubes689.adj.ext1'
c after writing 156474 bytes 0.1 MB
c wrote 7042 witnesses in 0.00 seconds process time
c 
c --- [ result ] -------------------------------------------------------------
c 
s SATISFIABLE
c 
c --- [ run-time profiling ] -------------------------------------------------
c 
c process time taken by individual solving procedures
c (percentage relative to process time for solving)
c 
c        38.66   79.90% search
c        24.27   50.16% unstable
c        13.16   27.20% stable
c         9.73   20.10% simplify
c         8.18   16.91% parse
c         3.94    8.13% vivify
c         3.21    6.64% probe
c         1.42    2.93% elim
c         0.73    1.50% lucky
c         0.50    1.03% walk
c         0.42    0.87% subsume
c         0.12    0.24% ternary
c   =================================
c        48.38   84.95% solve
c 
c last line shows process time for solving
c (percentage relative to total process time)
c 
c --- [ statistics ] ---------------------------------------------------------
c 
c chronological:              9961        18.06 %  of conflicts
c conflicts:                 55164      1140.13    per second
c decisions:                138206      2856.44    per second
c eliminated:                 2599        48.85 %  of all variables
c fixed:                      1466        27.56 %  of all variables
c learned:                   53931        97.76 %  per conflict
c learned_lits:           10757093       100.00 %  learned literals
c minimized:                     0         0.00 %  learned literals
c shrunken:                6891289        64.06 %  learned literals
c minishrunken:             811792         7.55 %  learned literals
c propagations:            6586911         0.14 M  per second
c reduced:                   27691        50.20 %  per conflict
c rephased:                     10      5516.40    interval
c restarts:                   1260        43.78    interval
c stabilizing:                   3        61.92 %  of conflicts
c substituted:                   8         0.15 %  of all variables
c subsumed:                  21976         1.07 %  of all clauses
c strengthened:              11200         0.55 %  of all clauses
c ternary:                    4841         0.51 %  of resolved
c vivified:                     90         0.00 %  of all clauses
c walked:                        2     27582.00    interval
c weakened:                   5576         3.04    average size
c 
c seconds are measured in process time for solving
c 
c --- [ resources ] ----------------------------------------------------------
c 
c total process time since initialization:        56.96    seconds
c total real time since initialization:           57.14    seconds
c maximum resident set size of process:          832.78    MB
c 
c --- [ shutting down ] ------------------------------------------------------
c 
c exit 10
WARNING! DIMACS header mismatch: wrong number of variables.
============================[ Problem Statistics ]=============================
|                                                                             |
|  Number of variables:          3428                                         |
|  Number of clauses:          146261                                         |
|  Parse time:                   0.91 s                                       |
|  Simplification time:          0.02 s                                       |
|                                                                             |
============================[ Search Statistics ]====================================================
| Conflicts |          ORIGINAL         |          LEARNT          | Num Sols |      SUBGRAPHS      |
|           |    Vars  Clauses Literals |    Limit  Clauses Lit/Cl |          | Canonical Noncanon. |
=====================================================================================================
|       100 |    3349   146261 13835296 |     2000      100    115 |        0 |        23         0 |
|       252 |    3349   146263 13835347 |     2000      252    100 |        0 |        35         2 |
|       505 |    3349   146291 13836780 |     2000      505    110 |        0 |        53        30 |
|       862 |    3349   146311 13837170 |     2000      862    108 |        0 |        60        50 |
|      1375 |    3349   146318 13837390 |     2000     1375    108 |        0 |        77        57 |
|      2177 |    3349   146361 13838222 |     3601     1178     69 |        0 |       104       100 |
|      3368 |    3349   146413 13839900 |     3601     2369     92 |        0 |       151       152 |
|      5342 |    3349   146679 13845351 |     5000     2542     62 |        0 |       207       418 |
|      7935 |    3349   146710 13846578 |     6300     2635     50 |        0 |       220       449 |
|     11906 |    3349   146837 13849332 |     7555     3461     45 |        0 |       328       576 |
|     18230 |    3349   147395 13860970 |     8785     6015     66 |        0 |       503      1134 |
|     26967 |    3349   147483 13863651 |    11208     5375     45 |        0 |       538      1222 |
|     40445 |    3349   147987 13876956 |    13615     7060     45 |        0 |       736      1726 |
|     60978 |    3349   149059 13898162 |    16007    13385     76 |        0 |      1151      2798 |
|     91332 |    3349   150221 13922915 |    19621    17953     75 |        0 |      1600      3960 |
|    136417 |    3349   151517 13946452 |    24416    20233     63 |        0 |      2058      5256 |
|    203100 |    3349   152516 13967106 |    30411    19911     60 |        0 |      2570      6255 |
|    304664 |    3349   155554 14025581 |    37610    21274     49 |        0 |      3343      9293 |
|    455135 |    3349   158236 14066836 |    46011    27546     57 |        0 |      4080     11975 |
|    679728 |    3349   161146 14114864 |    55611    51339     79 |        0 |      4800     14885 |
|   1021071 |    3349   169964 14253969 |    68819    53890     65 |        0 |      6873     23703 |
|   1530858 |    3349   180963 14467002 |    84409    69667     72 |        0 |     10302     34702 |
|   2303671 |    3349   205594 14988562 |   103622    95293     76 |        0 |     16316     59333 |
|   3481055 |    3349   260704 16222273 |   127611   122666     72 |        0 |     25256    114443 |
|   5191158 |    3349   287396 16703944 |   156424   135982     62 |        0 |     30337    141135 |
=====================================================================================================
Number of solutions   : 0
Canonical subgraphs   : 36176          (24 /sec)
          order  3    : 1              (166667 /sec)
          order  4    : 1              (500000 /sec)
          order  5    : 1              (250000 /sec)
          order  6    : 1              (55556 /sec)
          order  7    : 2              (9901 /sec)
          order  8    : 4              (2007 /sec)
          order  9    : 10             (464 /sec)
          order 10    : 46             (155 /sec)
          order 11    : 281            (57 /sec)
          order 12    : 1359           (26 /sec)
          order 13    : 5953           (24 /sec)
          order 14    : 21976          (23 /sec)
          order 15    : 6340           (27 /sec)
          order 16    : 161            (22 /sec)
          order 17    : 11             (23 /sec)
          order 18    : 10             (23 /sec)
          order 19    : 10             (22 /sec)
          order 20    : 9              (25 /sec)
          order 21    : 0              (-nan /sec)
Noncanonical subgraphs: 164544         (1312 /sec)
          order  3    : 0              (-nan /sec)
          order  4    : 0              (-nan /sec)
          order  5    : 0              (-nan /sec)
          order  6    : 0              (-nan /sec)
          order  7    : 0              (-nan /sec)
          order  8    : 0              (-nan /sec)
          order  9    : 0              (-nan /sec)
          order 10    : 0              (-nan /sec)
          order 11    : 0              (-nan /sec)
          order 12    : 0              (-nan /sec)
          order 13    : 27937          (3276 /sec)
          order 14    : 124065         (1226 /sec)
          order 15    : 11319          (1360 /sec)
          order 16    : 1204           (178 /sec)
          order 17    : 7              (200 /sec)
          order 18    : 1              (410 /sec)
          order 19    : 0              (-nan /sec)
          order 20    : 0              (-nan /sec)
Canonicity checking   : 1498.66 s
Noncanonicity checking: 125.42 s
Total canonicity time : 1624.08 s
database reductions   : 146
restarts              : 10749
conflicts             : 6680236        (1763 /sec)
decisions             : 8580211        (0.00 % random) (2265 /sec)
propagations          : 427471472      (112823 /sec)
conflict literals     : 746603025      (55.08 % deleted)
actual reward         : 0.194338
Memory used           : 256.00 MB
CPU time              : 3788.85 s

UNSATISFIABLE
